WARNING: for repeatability, setting FPU to use double precision
============================[ Problem Statistics ]=============================
|                                                                             |
|  Number of variables:            50                                         |
|  Number of clauses:             218                                         |
|  Parse time:                   0.00 s                                       |
|                                                                             |
============================[ Search Statistics ]==============================
| Conflicts |          ORIGINAL         |          LEARNT          | Progress |
|           |    Vars  Clauses Literals |    Limit  Clauses Lit/Cl |          |
===============================================================================
===============================================================================
restarts              : 1
conflicts             : 83             (53966 /sec)
decisions             : 90             (0.00 % random) (58518 /sec)
propagations          : 1137           (739272 /sec)
conflict literals     : 326            (17.88 % deleted)
Memory used           : 20.00 MB
CPU time              : 0.001538 s

UNSATISFIABLE
